
 102   30
  10   10   10   10   10   10   10   10   10   10   10   10   10   10   10   10   10   10   10   10   10   10   10   10   10   10   10   10   10   10

   0   0   0   0   0   0   0   0   0   0   0   0   0   0   0   0   0   0   0   0   0   0   0   0   0   0   0   0   0   0   0  20 2 3 4 6 7 8 9 10 11 12 13 14 16 17 19 21 23 26 28 39 
   9   2   0   0   0   0   1   0   0   0   0   0   0   0   0   0   0   1   0   0   0   0   0   0   0   0   0   1   0   2   2  10 58 49 48 44 37 35 34 32 18 5 
   4   0   0   1   0   0   0   0   0   0   0   0   0   0   0   0   0   0   0   0   1   0   0   0   0   0   0   0   0   6   3  10 53 52 51 38 37 32 30 29 22 15 
   3   6   0   0   0   0   0   0   0   0   0   4   0   0   0   0   0   0   0   0   0   0   0   0   0   0   0   0   0   0   7  16 75 73 68 63 62 61 56 53 51 48 38 36 33 31 30 20 
   5   0   0   0   0   0   0   0   0   0   0   0   0   1   0   0   0   0   0   0   0   0   1   3   0   0   5   0   0   0   0  16 96 75 73 72 68 67 63 61 57 54 53 51 43 38 33 20 
  10   0   0   0   1   1   0   0   0   0   0   0   0  10   0   0   0   0   0   0   0   0   0   0   0   4   6   0   0   0   7  18 100 75 73 71 67 63 62 61 58 56 54 52 49 48 46 40 38 32 
   6   0   0   0   0   0   0   2   0   1   0   0   0   0   0   0   0   0   2   0   0   0   0   0   0   0   6   0   0   0   0  18 100 96 95 73 71 68 62 61 60 57 56 55 51 48 47 40 36 24 
  10   0   0   0   0   0   0   0   0   0   0   0   3   0   0   0   0   0   0   0   0   2   0   0   0   0   0   0   0   0   5  15 74 71 68 67 65 63 53 52 51 49 48 35 33 32 30 
   5   0   0   0   0   0   0   0   0   6   0   0   0   0   0   0   0   0   0   0   0   0   0   0   0   0   0   0   0   0   0  14 101 96 74 73 71 68 65 57 56 49 48 32 27 24 
   7   0   0   0   0   0   0   0   2   0   0   0   7   0   0   0   0   0   0   0   3   0   0   0   0   0   0   5   0   0   0  13 73 67 66 65 62 59 53 48 45 41 38 34 25 
   7   3   0   0   0   0   3   0   6   0   0   0   0   0   0   0   0   5   0   0   0   0   0   0   0   0   0   0   0   3   0  20 101 98 96 74 73 72 71 67 66 65 64 62 60 59 56 53 52 50 49 42 
   7   0   0   0   0   0   0   0   0   0   0   0   0   0   0   0   0   0   0   0   0   0   3   0   0   0   0   0   0   9   0  21 101 100 98 97 96 95 74 73 72 71 69 67 66 65 64 61 60 56 53 52 42 
   7   5   0   0   0   0   0   8   0   0   0   3   0   0   0   0   0   0   0   0   0   0   0   0   0   0   0   0   0   0   6  19 100 99 97 95 93 86 73 69 68 67 66 60 58 57 56 50 47 42 41 
   9   0   0   5   0   0   0   0   0   0   2   0   0   0   0   0   0   0   0   0   0   0   3   0   1   0   0   6   0   7   0  20 100 98 97 96 95 93 85 74 73 72 71 67 65 64 62 60 59 56 53 42 
   7   0   0   0   0   0   0   0   0   0   0   0   0   0   3   0   0   0   0   0   0   0   0   0   0   0   0   0   0   0   0  11 100 99 97 64 58 56 55 45 43 41 40 
   7   0   0   0   0   0   0   0   0   0   0   0   0   0   7   0   0   6   0   4   0   0  10   0   0   0   0   2   0   0   0  22 101 100 97 96 95 94 93 83 82 74 73 71 70 68 67 64 62 60 59 56 52 48 
   6   0   0   0   0   0   0   0   0   0   0   0   0   0   0   0   0   0   0   0   0   0   0   0   0   0   0   0   0   0   0  13 100 74 72 68 66 65 64 62 59 54 53 42 35 
   1   0   0   5   7   0   0   0   0   0   0   4   0   0   0   0   0   4   0   0   0   0   0   0   0   6   0   0   2   0   0  17 101 100 97 96 95 93 75 74 71 67 65 64 59 56 55 52 42 
   7   0   0   0   0   0   0   0   0   0   0   0   0   0   0   0   0   0   0   0   0   0   0   0   0   0   0   0   0   0   0  11 100 98 74 72 70 63 54 53 49 44 35 
   6   0   0   0   0   0   0   0   0   0   8   0   0   0   0   0   0   0   0   0   0   0   7   0   0   0   0   0   0   9   0  14 100 97 95 93 91 90 71 65 64 59 55 52 50 42 
   4   0   0   0   0  10   0   0   0   0   0   0   0   0   0   1   0   0   0   0   0   0   0   0   0   0   0   0   0   0   0  17 97 94 93 89 86 83 82 74 72 71 70 69 66 64 60 56 52 
  10   0   0   0   0   0   5   0   0   0   8   0   0   6   1   0   0   0   0   0   0   0   0   0   0   0   3   0   0   0   0  13 101 95 93 91 82 74 71 69 67 66 64 49 42 
   5   0   0   0   0   3   0   0   0   0   0   0   0   0   0   0   0   0   0   0   0   0   0   0   4   0   0   0   0   0   0  13 101 97 96 93 91 83 82 72 66 64 62 59 48 
   3  10   1   0   0   0   0   6   0   0   0   7   0   0   0   4   0   0   5   0   0   0   0   7   0   0   0   0   4   0   0  12 99 93 91 90 86 82 72 69 66 64 52 42 
   3   0   0   0   0   0   0   0   0   9   0   0   0   5   0   0   0   9   0   0   0   0   0   0   0   0   0   5   2   0   0  12 98 95 93 88 86 83 81 74 70 64 56 44 
   7   0   0   0   9   0   0   0   0   0   0   0   8   0   7   0   0   9   0   0   0   0   0   0   0   0   0   0   0   0   0  12 101 98 93 91 90 73 65 62 60 59 52 50 
   7   0   0   0   7   0   0   0   0   0   0   0   3   0   0   0   1   0   0   0   0   0   0   0   0   0   0   0   0   7   0  14 99 97 95 93 88 87 82 75 72 70 69 64 59 52 
   1   0   0   0   5   0   7   0   0   0   0   0   0   0   0   0   0   0   3   0   0   0   0   0   0   0   0   0   0   4   7  12 101 94 93 91 85 84 83 82 63 62 59 48 
   5   0   0   0   0   0   0   0   0   0   0   0  10   0   8   0  10   0   0   0   0  10   0   0   0   0   0   0   0   0   4  18 97 96 94 91 90 89 88 87 86 85 84 83 82 81 76 70 65 64 
   5   0   0   0   0   0   0   0   0   0   0   0   0   0   0   0   3   0   0   0   6   0   0   0   0   0   0   0   0   0   0  17 100 99 96 94 92 88 87 86 85 84 83 82 81 78 72 70 64 
   4   0   0   0   0   0   0   0   0   7   0   0   0   0  10   0   0   0   0   0   0   0   0   0   6  10   0   0   5   2  10  14 101 96 95 93 91 84 83 82 80 79 77 71 66 59 
   3   0   0   0   0   0   0   0   5   0   0   0   0   0   0   0  10   0   0   0   0   0   0   0   0   8   0   0   0   0   0  12 99 98 95 93 91 90 83 81 69 64 60 59 
   1   0   0   0   0   4   0   2   0   0   0   0   0   0   0   0   0   0   0   0   0   0   0   0   0   0   0   5   0   0   0  14 97 95 93 91 89 88 86 84 83 78 76 70 66 64 
   8   0   0   0   0   0   0   0   0   0   0   0   0   0   0   0   0   0   0   0   0   0   0   0   0   7   0   0   0   5   0  14 98 97 96 91 85 84 83 82 81 79 71 69 68 64 
   4   0   0   0   0   0   0   0   0   0   0   0   0   0   0   0   0   0   0   0   8   0   0   0   0   0   0   0   0   0   0  15 96 95 93 91 89 88 87 86 82 81 80 79 78 73 69 
   8   2   0   0   0   0   0   5   0   0   0   0   0   0   0   0   0   0   0   0   0   0   0   5   0   0   0   0   0   0   0  14 99 94 93 89 88 87 86 83 82 81 79 78 69 64 
   1   0   0   0   0   0   0   0   0   5   0   0  10   0   0   0   0   0   0   0   7   0   0   0   0   0   0   0   9   0   0  13 100 97 93 87 86 85 84 83 80 78 73 72 62 
  10   0   6   0   0  10   0   2   0   4   0   4   0   0   0   6   0   0   6   0   0   0   0   0   0   0   0   0   0   0   0  12 95 93 86 85 84 83 81 80 77 70 69 60 
   3   0   0   0   0   0   0   0   0   0   0   0   0   7   4   0   0   0   0   0   0   0   0   0   0   0   0   0   0   0   1  12 96 95 92 91 90 85 84 82 76 73 64 60 
   3   0   0   0   0   0   0   0   0   0   0   0   0   0   0   0   0   0   0   4   0   0   0   0   7   0   0   0   0   0   0  12 101 94 92 88 86 84 82 81 80 72 69 65 
   9   0   0   8   0   9   0   0   0   7   0   0   0   2   0   0   0   0   0   0   0   0   0   0   0   0   6   0   0   0   0  13 98 96 92 91 85 84 83 82 81 80 79 76 74 
   9   6   0   0   0   0  10   0   0   0   0   0   0   7   0   0   0   0   0   0   8   6   0   0   0   5   0   6   0   0   0  12 94 92 89 88 87 84 83 81 80 78 76 70 
   5   6   0   0   0   0   0   0   0   0   0   0   0   6   0   0   0   0   0   0   0   0   0   0   0   0  10   0   0   0   5  10 98 95 89 87 86 85 80 79 77 62 
  10   0   0   4   0   0   0   9   0   2   0   0   0   0   0   0   0   0   0   0   0   0   0   0   5   0   0  10   0   0   0  11 94 92 89 87 85 84 82 80 79 78 71 
   3   0   0   0   0   0   0   7   0   0   0   5   0   0   0   0   8   0   0   0   0   0   0   0   0   0   0   0   0   0   0  11 96 95 93 87 84 83 82 80 78 77 70 
   1   0   0   0   0   0   0   0   0   0   0   0   0   0   0   0   0   0   0   0   0   0   0   0   0   7   0   0   0   0   0  10 99 96 87 86 84 82 81 79 78 69 
   4   0   0   4   0   0   0   0   0   0   0  10   0   0   0   7   0   0   0   0   0   0  10   0   0   0   0   0   0   0   0   9 94 87 85 84 82 81 77 76 65 
  10   0   0   0   0   0   0   0   0   9   0   0   0   0   0   0   5   0   0   5   0   0   0   0   5   0   0   6   0   0   0  10 98 92 90 89 88 86 80 79 78 77 
  10   0   0   0   0   0   0   0   0   7   0   0   0   0   0   9   0   0   0   0   0   0   0   0   0   0   0   0   0   0   0   8 97 94 90 83 81 80 79 76 
   9   0   0   0   0   0   0   0   0   7   0   0   0   0   0   0   0   0   0   0   0   0   0   5   0   0   0   0   0   0   0   7 85 82 81 80 79 77 76 
   2   0   0   0   3   0   0   0   0   0   8   7   0   0   0   0   0   0   0   0   0   0   0   4   0   0   0   0   0   0   0   7 99 93 83 79 78 77 76 
   8   0   0   0   4   0   0   0   0   0   0  10   0   0   0   0   0   0   0   0   0   0   0   5   0   0   0   0   6   7   0   6 92 85 84 80 77 76 
   6   0   0   0   7   0   0   0   0   0   0   0   0   0   0   0   0   0   0   0   0   0   5   0   0   0   0   0   0   0   0   6 99 86 83 82 78 76 
   7   0   0   7   7   0   4   0   0   0   0   5   0   0   4   0   0   0   0   0   0   6   3   0   8   0   4   0   7   0   0   6 85 83 82 81 78 76 
   8   0   0   0   0   0   0   0   7   0   0   0   0   0   0   0   0   0   0   0   0   0   8   0   0   0   0   0   0   0   0   5 94 82 81 80 69 
   1   0   0   0   0   0   0  10   7   0  10   0   0   0   0   0   0   0   0   0   0   0   0   6   8   0   0   0   0   0   0   5 91 90 84 79 77 
   6  10   0   0   0   0   0   0   0   0   4   0   0   6   0   0   0   0   6   0   0   0   0   0   0   0   0   0   0   0   0   5 94 83 81 79 76 
   6   0   7   0   0   0   0   0   4   0   0   0   5   0   0   0   5   0   0   0   0   0   0   0   0   0   0   7   0   0   0   4 90 83 81 80 
   3   0   0   0   0   0   0   4   0   0   0   7   0   0   0   0   0   0   0   0   0   0   0   0   7   0   6   0   0   0   0   3 89 86 78 
  10   0   0   5   0   0   0   0   0   0   0   0   0   0   0   5   0   0   0   0   0   0   0   0   0   4   0   0   0   0   0   3 88 87 78 
   5   4   0   0   0   0   9   0   6   0   0   0   0   0   0   0   0   0   0   5   0   0   0   0   0   0   0   0   0   0   0   3 79 77 76 
   3   0   0   0   0   0   0   0   8   0   0   8   3   0   0   0   0   0   9   0   0   0   0   0   0   0   8   0   0   0   6   2 81 69 
   4   0   0   0   0   0   9   9   0   4   0   0   0   0   0   0   0   0  10   0   0   5   0   0   0   0   0   0   0   0   0   2 86 69 
   6   8   0   0   0   0   0   0   0   0   6   0   0   0   0   0   0   0   0   0   0   0   0   0   7   0   0   0  10   0   0   2 80 77 
   6   6   0   6   0   6   0   0   0   0   0   0   0   0   0   0   0   0   0   0   0   0   5   0   0   0   0   0   0   0   0   2 79 78 
   3   0   0   0   0   3   0   0   0   5   0   0   0   0  10   0   0   0   2   0   8   0   0   0   0   0   0   0   0   0   0   2 85 81 
   4   0   0   0   0   0   0   0   0   0   0   0   0   0   0   0   0   5   0   5   0   0   7   3   7   0   0   0   0  10   0   2 78 77 
   4   0   0   7   0   0   0   0   5   0   0   0   0   0   0   0   7   0   0   0   0   0   0   9   0   0   0   0   0   0  10   2 90 78 
   4   0   0   0   0   0   0   8   0   0   0   0   0   0   0   0   0   0   0   0   0   0   0   0   0   6   0   0   0   0   0   1 76 
   4   0   0   0   0   0   0   0   0   0   0   0   0   0   0   0   0   0   0   0   0   0   0   0   0   0   8  10   0   0   0   1 79 
   5   0   0   5   0   0   0   0   0   0   0   6   0   0   0  10   7  10   0   7   6   0   0   0   5   0   0   4   4   0   0   1 76 
   4   0   0   0   0   0   0   7   0   6   0   0   0   5   0   0   0   0   0   0   7   0   0   0   0   0   0   0   0   0   0   1 77 
   5   0   0   7   0   0   0   0   0   0   0   0   0   7   0   0   0   0   7   6   0   0   0   0   2   0   0   0   0   0   0   1 77 
   1   0   0   7   0   0   0   0   0   0   0   0   0   0   0   0   0   0   0   0   0   0   0   0   7   0   0   8   0   0   0   1 77 
   1   0   9   0   0   0   0   0   0   8   0   0   0   0   0   0   0   0   0   0   4   0   0   0   0   0   0   0   0   0   0   1 90 
   8   0   0   0   0   0   0   9   0   0   3   0   0   0   0   0   0   0   0   0   0   0   0   0   0   0   0   0   0   0   0   1 102
   8   0   0  10   0   0   0   0   0   0   0   0   0   0   0   0   0   0   0   7   8   0   0   7   0   5   0   0   0   0   0   1 102
   7   0   0   0   0   0   0   0   0   0   0   0   0   0   0   0   0   0   0   5   0   0   0   0   0   0   0   0   6   0   0   1 102
   6   0   0   0   0   5   0   0   0   0   0   0   0   0   0   0   0   0   0   0   0   0   0   0   0   0   0   0   0   0   9   1 102
  10   0   0   0   0   0   0   0   5   0   0   0   0   0   0   0   0   0   0   0   0   0   0   0   0   0   0   0   0   0   0   1 102
   4   0   0   0   0   0   0   0   0   0   0   0   0   0   0   0   0   0   0   0   0   0   0   0   0   0   0   7   8   0   0   1 102
  10   0   6   0   0   0   0   0   0   0   0   0   0   0   0   0   0   0   0   0   0   0   0   0   0   4   0   0   0   0   0   1 102
   7   0   0   0   0   0   0   0   0   0   0   0   0   0   0   0   0   0   0   0   0   0   0   7   0   0   0   0   0   0   0   1 102
   8   8   0   7   0   0  10   5   0   0   0   0   0   0   0   0   0   0   6   5   0   0   7   0   0   6   0   0   0   0   9   1 102
   3   0   0   0   0   0   0   0   0   0   5   0   0   0   0   0   0   0   0   0   0   0   0   0   7   0   0   0   9   0   0   1 102
   3   0   0   0   0   0   3   0   0   0   0   0   0   0   0   0   0   0   0   0   0   3   0   0   0   0   0   0   0   0   0   1 102
   9   0   0   0  10   0   0   0   3   0   0   0   0   0   0   6   0   0   0   0   0   0   0   0  10   0   0   0   0   0   0   1 102
   9   0   5   0   0   0   5   0   0   9   7   0   5   0   0   0   0   0   5   0   0   5   9   0   0   0   0   0   0   0   0   1 102
   3   0   0   0   0   9   0   0   9   3   6   0   0   0   0   0   0   0   0   0   0   0   0   0   0   0   0   0   6   0   0   1 102
   7   0   0   0   0   0   0   0   0   0   0   0   0   0   0   0   0   0   0   7   0   4   0   0   0   0   0   0   0   0   0   1 102
   7   4   0   0   0   0   0   0   0   0   0   0   0   0   0   0   0   0   0   8   0   0   0   8   0   0   0   0   0   0   5   1 102
   3   0   0   0   0   0   0   0   0   0   0   0   0   0   0   0   0   0   0   0   0   0   0   0   0   0   0   0   0   7   0   1 102
   2   0   0   8   0   0   5   3   0   0   0   4   0   8   0   0   0   0  10  10   0   0   0   0   0   0   0   0   0   0   0   1 102
   2   0   0   8   0   0   0   0   0   0   0   0   0   0   0   0   4   0   0   0   6   5   0   4   0   0   0   0   0   0   0   1 102
   5   0   0   0   0   0   0   0   0   0   0   0   0   8   6   0   0   0   0   0   0   7   0   0   0   0   6   0   0   0   0   1 102
  10   0   0   0   0   0   7   0   0   0   0   0   0   0   0   0   0   0   0   0   0   0   0   0   0   0   0   0   0   0   0   1 102
   7   0   7   0   0   0   0   0   7   6   5   0   0   0   0   0   0   0   0   0   0   8   0  10   0   0   0   0   0   0   0   1 102
   4   0   0   0   0   0   6   0  10   0   0   0   0   0   0   0   0   5   0   0   0   0   0   0   6   0   4   0   0   0   0   1 102
   7   0   7   4   0   0   0   0   0   9   0   0   0   0   6   0   0   0   0   6   0   0   0   0   0   0   0   8   0   0   0   1 102
   2   0   0   0   0   0   0   0   0   0   0   0   0   0   0   0   0   0   0   0   0   7   0   0   0   0   0   0   4   0   0   1 102
   8  10   0   0   0   0   0   0   0   0   0   0   0   0   0   0   0   0   7   0   0  10   0   7   0   0   0   0   8   0   0   1 102
   0   0   0   0   0   0   0   0   0   0   0   0   0   0   0   0   0   0   0   0   0   0   0   0   0   0   0   0   0   0   0   0 
